(set-logic QF_SLIA)
(declare-fun var0 () String)
(assert (not (str.in_re var0 (re.++ ((_ re.loop 1 849) (re.++ (re.union (str.to_re "Pc") (re.union (str.to_re "/") (re.union (str.to_re ".$") (str.to_re "7z+")))) (re.++ (re.union (str.to_re "{k") (re.union (str.to_re "L") (re.union (str.to_re "W") (str.to_re "+(")))) (re.++ (re.union (str.to_re "]%") (re.union (str.to_re "I[]") (re.union (str.to_re "*.") (str.to_re "MqL")))) (re.union (str.to_re "k\u0022s") (re.union (str.to_re "pX2") (re.union (str.to_re "l3") (str.to_re "hg")))))))) (re.++ ((_ re.loop 2 925) (re.++ (re.union (str.to_re ")") (re.union (str.to_re "*") (re.union (str.to_re "FZ") (str.to_re "Xj|")))) (re.++ (re.union (str.to_re "g|F") (re.union (str.to_re "EGS") (re.union (str.to_re "5") (str.to_re "As-")))) (re.++ (re.union (str.to_re "i") (re.union (str.to_re "vBj") (re.union (str.to_re "#") (str.to_re "h0")))) (re.union (str.to_re "K2") (re.union (str.to_re "E") (re.union (str.to_re "6L") (str.to_re "eI\\")))))))) (re.++ ((_ re.loop 4 815) (re.++ (re.union (str.to_re "V") (re.union (str.to_re "n") (re.union (str.to_re ",\\") (str.to_re "_Md")))) (re.++ (re.union (str.to_re ",T") (re.union (str.to_re "Z_6") (re.union (str.to_re "@Rp") (str.to_re "2")))) (re.++ (re.union (str.to_re "C7") (re.union (str.to_re "%") (re.union (str.to_re "v&`") (str.to_re "!")))) (re.union (str.to_re "PF\\") (re.union (str.to_re "|#") (re.union (str.to_re "(") (str.to_re "]")))))))) ((_ re.loop 14 239) (re.++ (re.union (str.to_re "UwP") (re.union (str.to_re "K6J") (re.union (str.to_re "sO") (str.to_re "Y>")))) (re.++ (re.union (str.to_re "^4") (re.union (str.to_re "RWs") (re.union (str.to_re "'GU") (str.to_re "S")))) (re.++ (re.union (str.to_re "OcZ") (re.union (str.to_re "xT") (re.union (str.to_re "9") (str.to_re "G;N")))) (re.union (str.to_re "Z") (re.union (str.to_re ",]#") (re.union (str.to_re "=") (str.to_re "d"))))))))))))))
(assert (not (str.in_re var0 (re.++ ((_ re.loop 20 815) (re.++ (re.union (str.to_re "~pI") (re.union (str.to_re ";\\/") (re.union (str.to_re "&,V") (str.to_re "I")))) (re.++ (re.union (str.to_re "Y;A") (re.union (str.to_re "9") (re.union (str.to_re ":?") (str.to_re "CBJ")))) (re.++ (re.union (str.to_re "h") (re.union (str.to_re "-d") (re.union (str.to_re ">SU") (str.to_re ")")))) (re.union (str.to_re "@A") (re.union (str.to_re "n") (re.union (str.to_re "4") (str.to_re "A")))))))) (re.++ ((_ re.loop 18 81) (re.++ (re.union (str.to_re "}1K") (re.union (str.to_re "mB") (re.union (str.to_re "t&\\") (str.to_re "%6")))) (re.++ (re.union (str.to_re "'B") (re.union (str.to_re "7']") (re.union (str.to_re "JBa") (str.to_re "/e")))) (re.++ (re.union (str.to_re "F`") (re.union (str.to_re "y") (re.union (str.to_re "R\\") (str.to_re "W6t")))) (re.union (str.to_re "Ld<") (re.union (str.to_re "M") (re.union (str.to_re "-R") (str.to_re "T")))))))) (re.++ ((_ re.loop 5 533) (re.++ (re.union (str.to_re "L") (re.union (str.to_re "z}") (re.union (str.to_re "'4") (str.to_re "xZB")))) (re.++ (re.union (str.to_re "bN{") (re.union (str.to_re "D~,") (re.union (str.to_re "!") (str.to_re "\u0022")))) (re.++ (re.union (str.to_re "?") (re.union (str.to_re "A!") (re.union (str.to_re "26Q") (str.to_re "-")))) (re.union (str.to_re "12") (re.union (str.to_re "%G") (re.union (str.to_re "v") (str.to_re "#")))))))) ((_ re.loop 19 982) (re.++ (re.union (str.to_re "BDm") (re.union (str.to_re "f") (re.union (str.to_re "ag") (str.to_re "I`]")))) (re.++ (re.union (str.to_re "IK") (re.union (str.to_re "k") (re.union (str.to_re "e") (str.to_re "OG")))) (re.++ (re.union (str.to_re "K<x") (re.union (str.to_re "a") (re.union (str.to_re "W") (str.to_re "J<$")))) (re.union (str.to_re "8A>") (re.union (str.to_re "Et") (re.union (str.to_re "{<\\") (str.to_re ";3#"))))))))))))))
(assert (not (str.in_re var0 (re.++ (re.* re.allchar) (re.++ (re.union (str.to_re "<") (re.union (str.to_re ">") (re.union (str.to_re "'") (re.union (str.to_re "\u0022") (str.to_re "&"))))) (re.* re.allchar))))))
(assert (<= 50 (str.len var0)))
(check-sat)
(get-model)
